p edge 160 431
c 2253
e 0 122 1 0
e 0 33 1 1
e 0 127 1 3
e 1 40 1 4
e 1 80 1 6
e 2 65 2 7
e 2 43 1 9
e 2 141 1 10
e 3 97 2 13
e 4 16 1 16
e 4 93 4 17
e 5 46 1 20
e 6 72 1 21
e 6 98 1 22
e 6 148 1 24
e 7 93 22 27
e 8 37 1 30
e 8 63 22 31
e 8 79 5 32
e 8 156 45 33
e 9 146 1 34
e 9 97 2 35
e 9 152 1 37
e 10 73 1 38
e 10 57 1 39
e 10 89 1 41
e 10 135 2 42
e 11 20 20 45
e 11 116 2 47
e 12 136 1 48
e 12 16 2 50
e 12 63 17 51
e 12 95 1 52
e 13 88 1 54
e 13 18 2 55
e 13 81 1 56
e 13 85 1 57
e 14 113 1 59
e 14 19 1 60
e 14 108 1 62
e 15 32 1 63
e 15 106 3 64
e 15 158 2 66
e 16 58 1 67
e 17 131 1 69
e 17 92 1 70
e 17 100 1 75
e 17 147 1 76
e 18 64 2 77
e 18 119 2 80
e 19 41 1 81
e 19 45 1 83
e 20 124 16 84
e 20 42 39 86
e 20 109 3 89
e 20 24 19 90
e 20 111 37 91
e 20 37 5 93
e 20 151 4 95
e 20 50 37 97
e 20 55 40 98
e 20 71 25 99
e 20 137 44 102
e 21 147 2 104
e 21 23 1 105
e 21 29 1 106
e 21 32 1 107
e 21 91 1 109
e 22 122 1 110
e 22 30 1 112
e 22 50 1 113
e 22 152 1 116
e 23 75 1 117
e 23 50 27 118
e 25 86 2 122
e 25 40 1 124
e 25 128 1 125
e 26 84 1 128
e 27 86 1 129
e 27 50 5 131
e 27 79 14 133
e 28 152 1 135
e 28 58 2 137
e 28 102 1 138
e 28 109 2 139
e 29 128 1 141
e 30 67 1 143
e 31 150 1 146
e 31 82 1 148
e 31 138 1 149
e 31 159 2 151
e 32 79 2 152
e 32 63 9 153
e 33 130 1 157
e 34 131 1 158
e 34 149 2 159
e 34 55 7 160
e 35 107 2 162
e 35 75 1 163
e 35 55 48 164
e 37 134 22 170
e 37 46 1 171
e 38 124 1 174
e 38 109 3 175
e 38 121 1 176
e 39 101 1 177
e 39 93 21 180
e 41 61 2 185
e 42 104 18 189
e 42 80 11 190
e 42 154 4 191
e 42 93 23 192
e 42 70 19 194
e 42 151 31 195
e 42 134 33 197
e 42 156 6 199
e 43 158 1 200
e 43 64 2 201
e 43 76 1 202
e 44 78 1 205
e 44 134 20 206
e 44 156 10 207
e 45 70 1 209
e 45 134 16 210
e 45 156 26 211
e 48 79 6 218
e 49 104 1 220
e 49 122 1 221
e 49 54 1 222
e 49 114 1 224
e 49 135 3 225
e 50 63 6 226
e 50 93 48 227
e 50 104 38 229
e 50 116 41 232
e 50 55 11 233
e 50 71 11 234
e 50 156 26 237
e 51 61 1 238
e 52 58 2 240
e 52 140 1 243
e 53 110 1 244
e 53 114 1 245
e 55 88 43 248
e 55 146 9 250
e 55 71 27 252
e 55 117 38 254
e 55 125 30 255
e 55 67 11 256
e 55 74 24 257
e 55 93 9 259
e 56 153 1 261
e 58 70 2 266
e 60 64 1 270
e 61 93 14 273
e 61 144 1 275
e 62 148 1 276
e 62 68 2 277
e 62 127 1 278
e 62 151 2 280
e 63 79 22 281
e 63 119 29 282
e 63 98 6 283
e 63 135 14 284
e 63 144 20 285
e 63 71 43 288
e 63 86 41 290
e 64 138 1 291
e 65 138 1 292
e 65 77 1 293
e 65 150 1 294
e 66 96 1 296
e 67 95 1 298
e 67 116 2 300
e 68 145 1 301
e 69 90 1 304
e 69 124 1 306
e 71 155 29 309
e 71 118 45 310
e 71 90 19 312
e 71 76 17 314
e 71 134 47 316
e 71 79 4 317
e 71 156 19 319
e 72 139 3 321
e 72 124 1 322
e 73 130 1 323
e 73 75 1 325
e 76 155 1 329
e 79 134 7 333
e 79 137 26 335
e 79 93 40 336
e 79 141 4 337
e 79 156 39 340
e 81 119 1 342
e 81 154 1 343
e 83 109 3 344
e 83 134 29 346
e 84 119 2 347
e 86 137 1 352
e 89 96 1 355
e 90 115 1 356
e 91 151 1 357
e 91 153 1 358
e 92 93 22 360
e 93 100 7 362
e 93 120 37 363
e 93 134 38 364
e 93 146 5 365
e 94 145 1 369
e 96 106 1 370
e 96 130 1 371
e 99 107 2 375
e 100 143 1 377
e 101 142 1 378
e 101 130 2 379
e 102 122 1 381
e 103 126 2 382
e 103 133 3 384
e 106 112 1 387
e 106 145 1 389
e 107 126 1 391
e 108 147 1 392
e 112 142 1 396
e 113 150 1 397
e 113 133 2 398
e 114 157 1 400
e 115 154 1 401
e 117 123 2 403
e 117 139 1 404
e 118 158 1 405
e 120 136 2 407
e 120 123 1 408
e 120 134 45 409
e 121 153 1 410
e 121 156 1 411
e 122 131 1 412
e 125 142 2 415
e 125 134 30 416
e 125 156 42 417
e 126 148 1 418
e 128 156 18 420
e 129 134 46 421
e 133 135 2 422
e 134 137 43 426
e 136 156 3 428
e 155 156 46 430
